set VV := 0 1 2 3 4 5 6 7 8 9 ;
set VS := 0 1 2 3 4 5 6 7 8 9 10 11 12 13 14 15 16 17 18 19 20 21 22 23 ;
param cv := 
0 10
1 19
2 25
3 24
4 16
5 21
6 15
7 10
8 21
9 15
;
param cs := 
0 40
1 29
2 37
3 21
4 22
5 24
6 25
7 36
8 33
9 38
10 34
11 30
12 25
13 37
14 32
15 27
16 23
17 36
18 29
19 29
20 20
21 38
22 32
23 38
;
param bv:	 0 1 2 3 4 5 6 7 8 9 := 
		0 0 0 0 0 0 0 0 0 0 19 
		1 0 0 0 0 0 0 0 14 0 0 
		2 0 0 0 0 0 0 21 25 0 11 
		3 0 0 0 0 0 0 11 0 10 0 
		4 0 0 0 0 0 0 21 0 22 0 
		5 0 0 0 0 0 0 25 0 0 0 
		6 0 0 0 0 0 0 0 0 0 24 
		7 0 0 0 0 0 0 0 0 0 0 
		8 0 0 0 0 0 0 0 0 0 0 
		9 0 0 0 0 0 0 0 0 0 0 
;
param bs:	 0 1 2 3 4 5 6 7 8 9 10 11 12 13 14 15 16 17 18 19 20 21 22 23 := 
		0 0 0 0 0 0 0 0 23 0 0 0 0 0 32 0 0 0 0 0 0 0 0 0 0 
		1 0 0 0 0 38 0 0 0 0 0 0 0 39 0 0 0 35 0 0 0 0 0 0 0 
		2 0 0 0 0 0 21 0 0 0 0 0 34 0 20 0 0 0 0 0 0 0 0 0 34 
		3 0 0 0 0 0 0 0 0 0 0 25 0 0 0 0 0 0 22 39 0 0 0 0 0 
		4 0 38 0 0 0 0 0 0 0 0 0 0 0 0 0 0 0 0 0 0 0 0 0 0 
		5 0 0 21 0 0 0 0 0 0 0 0 0 0 0 0 25 0 0 0 0 0 0 0 0 
		6 0 0 0 0 0 0 0 25 0 0 0 0 0 0 0 0 0 0 0 0 0 0 0 31 
		7 23 0 0 0 0 0 25 0 0 0 0 0 0 0 0 0 0 0 0 0 0 0 39 27 
		8 0 0 0 0 0 0 0 0 0 0 0 0 0 0 0 0 0 26 0 0 0 0 30 0 
		9 0 0 0 0 0 0 0 0 0 0 0 0 0 0 0 30 0 0 0 0 0 0 0 0 
		10 0 0 0 25 0 0 0 0 0 0 0 0 0 0 0 40 0 0 0 0 0 0 0 0 
		11 0 0 34 0 0 0 0 0 0 0 0 0 0 0 23 0 0 0 0 0 0 0 25 0 
		12 0 39 0 0 0 0 0 0 0 0 0 0 0 0 0 0 0 0 0 0 29 0 0 0 
		13 32 0 20 0 0 0 0 0 0 0 0 0 0 0 0 27 24 0 0 0 0 0 0 39 
		14 0 0 0 0 0 0 0 0 0 0 0 23 0 0 0 0 0 27 0 26 33 38 20 0 
		15 0 0 0 0 0 25 0 0 0 30 40 0 0 27 0 0 0 0 0 0 0 36 0 0 
		16 0 35 0 0 0 0 0 0 0 0 0 0 0 24 0 0 0 0 0 0 0 32 0 0 
		17 0 0 0 22 0 0 0 0 26 0 0 0 0 0 27 0 0 0 0 0 0 0 0 0 
		18 0 0 0 39 0 0 0 0 0 0 0 0 0 0 0 0 0 0 0 0 0 0 33 0 
		19 0 0 0 0 0 0 0 0 0 0 0 0 0 0 26 0 0 0 0 0 0 0 0 0 
		20 0 0 0 0 0 0 0 0 0 0 0 0 29 0 33 0 0 0 0 0 0 0 0 0 
		21 0 0 0 0 0 0 0 0 0 0 0 0 0 0 38 36 32 0 0 0 0 0 0 0 
		22 0 0 0 0 0 0 0 39 30 0 0 25 0 0 20 0 0 0 33 0 0 0 0 0 
		23 0 0 34 0 0 0 31 27 0 0 0 0 0 39 0 0 0 0 0 0 0 0 0 0 
;
